minizinc/sudoku_problems2/sudoku_p68.dzn
%
% sudoku_p68.dzn
% See http://www.hakank.org/minizinc/sudoku_gcc.mzn
% 
% This problem is problem 68 from
% Gecode's sudoku.cpp
% http://www.gecode.org/gecode-doc-latest/sudoku_8cpp-source.html
% 
x = array2d(1..n, 1..n, [   
% http://janko.at/Raetsel/Sudoku/515.a.htm
% 68
 10,  _,  5,  _, 15, 11,  _, 12,  _,  _,  _,  7,  _,  _,  3,  _,
 16,  3,  8,  _,  _,  _,  _, 13,  _, 12,  _, 14, 11,  5,  _,  _,
  _,  _, 15,  _,  _,  _,  3,  _,  9, 16,  8,  _,  _, 13,  7,  _,
  _,  _,  _, 14,  _,  2,  _,  4,  _, 10,  _,  5,  9,  _, 15, 16,
  8,  _,  _, 10,  _,  _,  6,  _,  3, 15,  7, 13,  5,  _,  _,  _,
 11,  _,  _,  4,  _,  _,  _,  _,  5,  _,  _,  _, 13, 14, 10,  _,
  6,  1,  _,  _, 11, 13,  7,  5,  _,  _, 14,  _,  _,  _,  _,  _,
  _,  5, 12,  _,  1, 14,  _, 10,  _,  8,  _,  _,  _,  _,  6,  2,
 12,  8,  _,  _,  _,  _, 14,  _,  7,  _,  6,  2,  _, 16, 13,  _,
  _,  _,  _,  _,  _, 10,  _,  _, 13,  9,  5, 15,  _,  _,  8,  4,
  _, 13,  4,  1,  _,  _,  _,  6,  _,  _,  _,  _,  2,  _,  _,  7,
  _,  _,  _,  9,  2,  8, 13,  1,  _, 14,  _,  _,  3,  _,  _, 12,
  5,  7,  _,  3, 14,  _, 10,  _,  8,  _,  9,  _, 12,  _,  _,  _,
  _,  2,  1,  _,  _, 12,  5,  8,  _,  4,  _,  _,  _, 15,  _,  _,
  _,  _,  6, 12,  9,  _,  1,  _,  2,  _,  _,  _,  _, 10, 14, 11,
  _, 10,  _,  _, 13,  _,  _,  _, 16,  _,  1, 12,  _,  4,  _,  5
]);

n = 16;


